NAME: tsp50_6
COMMENT: 50-tsp problem (Padberg/Rinaldi)
TYPE: TSP
DIMENSION: 50
EDGE_WEIGHT_TYPE : EUC_2D
NODE_COORD_SECTION
1 3 7
2 0 11
3 17 27
4 29 15
5 0 11
6 27 19
7 2 8
8 18 37
9 22 30
10 28 33
11 34 11
12 19 17
13 36 32
14 39 14
15 7 5
16 31 7
17 32 11
18 18 5
19 23 17
20 32 14
21 18 27
22 12 22
23 26 30
24 1 30
25 40 40
26 18 40
27 17 9
28 34 3
29 21 22
30 22 16
31 3 34
32 22 4
33 11 18
34 11 16
35 15 9
36 20 31
37 5 16
38 38 8
39 8 20
40 2 5
41 6 31
42 28 16
43 7 34
44 2 30
45 4 6
46 36 1
47 38 30
48 32 7
49 39 34
50 21 23
